\ Model qp
\ LP format - for model browsing. Use MPS format to capture full model detail.
Minimize
  - 13.67136656797188 tau1 + 8.431501805173133 tau2 + 0 a01 + 0 a02 + 0 a03
   + 0 a10 + 0 a11 + 0 a12 + 0 a13 + 0 a20 + 0 a21 + 0 a22 + 0 a30 + 0 a31
   + 0 a32 + 82.2716773042837 Constant + [ 2 tau1 ^2 + 2 tau2 ^2
   + 2 tau3 ^2 + 2000 a00 ^2 ] / 2 
Subject To
 R1535: - tau1 >= -0.0717227990787181
 R1536: tau1 >= -0.0717227990787181
 R1537: - tau2 >= -0.0717227990787181
 R1538: tau2 >= -0.0717227990787181
 R1539: - 135.6214641008975 tau1 - 233.2238950609071 tau2
   - 0.1354247356712257 a40 - 10.42871654683555 a41 >= 20.24453122700021
Bounds
 -1.184067 <= tau1 <= 1.184067
 -1.184067 <= tau2 <= 1.184067
 -13.9302 <= tau3 <= 13.9302
 a00 <= 1e+06
 1 <= a01 <= 10000
 1 <= a02 <= 100
 a03 = 1
 a10 <= 1e+06
 1 <= a11 <= 10000
 1 <= a12 <= 100
 a13 = 1
 a20 <= 1
 a21 = 1
 a22 = 1
 a30 <= 1
 a31 = 1
 a32 = 1
 a40 <= 1e+06
 1 <= a41 <= 10000
 Constant = 1
End
